0 1
0 2
0 3
0 7
0 9
0 11
1 5
1 8
1 10
1 12
2 3
2 5
2 7
2 9
2 11
2 15
3 8
3 9
3 10
3 12
3 14
3 15
4 7
4 10
4 13
4 14
5 6
5 7
5 8
5 10
5 14
6 9
6 12
6 15
7 8
7 10
7 12
7 14
8 10
8 13
8 15
9 12
9 13
10 11
10 13
10 14
10 15
11 12
11 15
13 14
14 15
